100 90020

 686 574
663 320
211 401
302 382
86 718
397 617
253 318
533 803
769 250
891 525
915 675
381 555
444 898
33 952
260 623
234 717
515 896
859 256
308 307
739 950
796 144
70 658
454 391
439 813
825 676
364 169
983 990
766 298
481 233
144 903
24 271
965 60
425 296
746 467
845 235
175 677
844 706
325 234
869 368
671 695
860 845
348 232
798 873
18 491
44 619
155 503
867 890
922 735
377 592
743 746
883 381
828 696
402 428
225 697
217 646
568 732
31 800
869 364
59 202
892 882
898 146
353 836
935 639
445 457
235 135
107 626
191 264
992 64
530 491
913 647
738 41
679 296
583 3
874 913
566 706
245 975
995 110
862 221
76 370
547 368
267 436
317 918
812 4
121 244
836 902
25 166
432 26
160 395
596 474
114 17
735 728
900 92
502 483
166 543
703 205
175 502
1 931
899 400
741 207
86 619
